151089
0,42,23,92,11,91,8,33,25,49,67,98,99,44,24,61,21,85,45,76,20,16,89,63,15,55,19,39,12,30,64,51,4,29,28,54,96,7,105,97,87,5,68,80,41,18,50,81,71,1,32,38,36,70,53,35,72,47,84,10,40,66,94,103,37,104,100,2,77,95,59,90,78,14,17,93,69,48,83,52,6,62,31,74,34,102,3,60,46,13,101,73,82,56,22,79,88,75,57,27,26,9,65,58,43,86,0